6994
13,106,91,119,68,128,104,4,45,71,44,115,150,125,22,149,62,3,113,10,94,121,79,88,21,78,15,59,16,111,105,33,126,52,93,124,35,96,89,8,84,7,34,30,63,48,73,76,87,1,98,103,82,95,107,5,100,143,97,146,26,75,18,142,85,65,55,58,50,132,137,135,86,29,108,70,102,114,99,19,2,37,6,28,9,42,120,47,110,81,20,25,141,83,56,90,92,54,46,138,51,109,134,133,80,14,122,77,131,32,23,38,67,43,12,24,53,139,40,118,127,69,36,61,11,148,130,17,66,60,140,117,57,39,116,101,41,27,31,129,144,147,49,72,145,64,112,136,123,74,13
